\ENCODING=ISO-8859-1
\Problem name: IloCplex

Maximize
 obj: _eta.0#179
Subject To
 c1:                         z.0#0 + z.1#1 + z.2#2 + z.3#3 + z.4#4 + z.5#5
                             + z.6#6 <= 1
 c2:                         z.7#7 + z.8#8 + z.9#9 + z.10#10 <= 1
 c3:                         <= 1
 c4:                         <= 1
 c5:                         z.11#11 + z.12#12 + z.13#13 + z.14#14 + z.15#15
                             + z.16#16 + z.17#17 <= 1
 c6:                         z.18#18 + z.19#19 + z.20#20 + z.21#21 + z.22#22
                             + z.23#23 <= 1
 c7:                         z.24#24 + z.25#25 + z.26#26 + z.27#27 <= 1
 c8:                         z.28#28 <= 1
 c9:                         <= 1
 c10:                        z.29#29 <= 1
 c11:                        z.30#30 + z.31#31 + z.32#32 + z.33#33 + z.34#34
                             <= 1
 c12:                        z.35#35 + z.36#36 <= 1
 c13:                        z.37#37 + z.38#38 + z.39#39 + z.40#40 <= 1
 c14:                        <= 1
 c15:                        z.30#30 + z.31#31 + z.41#41 + z.42#42 + z.43#43
                             + z.44#44 + z.45#45 + z.46#46 + z.47#47 + z.48#48
                             + z.49#49 + z.50#50 + z.51#51 + z.52#52 + z.53#53
                             <= 1
 c16:                        <= 1
 c17:                        z.35#35 + z.54#54 + z.55#55 + z.56#56 <= 1
 c18:                        <= 1
 c19:                        z.37#37 + z.38#38 + z.39#39 + z.40#40 + z.57#57
                             + z.58#58 + z.59#59 + z.60#60 <= 1
 c20:                        <= 1
 c21:                        z.0#0 + z.3#3 + z.4#4 + z.12#12 + z.14#14
                             + z.16#16 + z.19#19 + z.20#20 + z.22#22 + z.24#24
                             + z.25#25 + z.26#26 + z.27#27 + z.28#28 + z.29#29
                             + z.35#35 + z.36#36 + z.54#54 + z.61#61 + z.62#62
                             + z.63#63 + z.64#64 + z.65#65 + z.66#66 + z.67#67
                             + z.68#68 + z.69#69 + z.70#70 + z.71#71 + z.72#72
                             + z.73#73 + z.74#74 + z.75#75 + z.76#76 + z.77#77
                             + z.78#78 + z.79#79 + z.80#80 + z.81#81 + z.82#82
                             + z.83#83 + z.84#84 + z.85#85 + z.86#86 + z.87#87
                             + z.88#88 + z.89#89 + z.90#90 + z.91#91 + z.92#92
                             + z.93#93 + z.94#94 + z.95#95 + z.96#96 + z.97#97
                             + z.98#98 + z.99#99 + z.100#100 + z.101#101
                             + z.102#102 + z.103#103 + z.104#104 + z.105#105
                             <= 1
 c22:                        z.37#37 + z.55#55 + z.106#106 + z.107#107
                             + z.108#108 <= 1
 c23:                        <= 1
 c24:                        z.109#109 + z.110#110 + z.111#111 <= 1
 c25:                        z.61#61 + z.62#62 + z.63#63 + z.112#112
                             + z.113#113 + z.114#114 <= 1
 c26:                        <= 1
 c27:                        z.115#115 + z.116#116 <= 1
 c28:                        <= 1
 c29:                        <= 1
 c30:                        z.85#85 + z.86#86 + z.117#117 + z.118#118
                             + z.119#119 <= 1
 c31:                        z.115#115 + z.116#116 + z.120#120 + z.121#121
                             + z.122#122 + z.123#123 + z.124#124 + z.125#125
                             + z.126#126 + z.127#127 + z.128#128 <= 1
 c32:                        z.76#76 <= 1
 c33:                        z.27#27 + z.29#29 + z.30#30 + z.36#36 + z.66#66
                             + z.70#70 + z.80#80 + z.83#83 + z.84#84 + z.97#97
                             + z.129#129 + z.130#130 <= 1
 c34:                        z.131#131 <= 1
 c35:                        z.64#64 + z.65#65 + z.66#66 + z.78#78 + z.92#92
                             + z.125#125 + z.132#132 <= 1
 c36:                        z.6#6 + z.7#7 + z.8#8 + z.9#9 + z.10#10 + z.11#11
                             + z.18#18 + z.41#41 + z.46#46 + z.50#50 + z.51#51
                             + z.84#84 + z.109#109 + z.114#114 + z.117#117
                             + z.126#126 + z.130#130 + z.133#133 + z.134#134
                             + z.135#135 + z.136#136 + z.137#137 + z.138#138
                             + z.139#139 + z.140#140 + z.141#141 + z.142#142
                             + z.143#143 + z.144#144 + z.145#145 <= 1
 c37:                        z.0#0 + z.1#1 + z.16#16 + z.17#17 + z.22#22
                             + z.23#23 + z.44#44 + z.47#47 + z.48#48 + z.52#52
                             + z.54#54 + z.55#55 + z.56#56 + z.62#62 + z.68#68
                             + z.75#75 + z.81#81 + z.86#86 + z.91#91 + z.96#96
                             + z.97#97 + z.99#99 + z.103#103 + z.105#105
                             + z.106#106 + z.107#107 + z.110#110 + z.112#112
                             + z.118#118 + z.127#127 + z.129#129 + z.146#146
                             + z.147#147 + z.148#148 + z.149#149 + z.150#150
                             + z.151#151 + z.152#152 + z.153#153 + z.154#154
                             + z.155#155 + z.156#156 + z.157#157 + z.158#158
                             + z.159#159 + z.160#160 <= 1
 c38:                        z.8#8 + z.32#32 + z.39#39 + z.51#51 + z.52#52
                             + z.53#53 + z.56#56 + z.57#57 + z.81#81 + z.82#82
                             + z.133#133 + z.136#136 + z.149#149 + z.157#157
                             + z.158#158 + z.161#161 <= 1
 c39:                        z.58#58 + z.60#60 + z.107#107 + z.108#108
                             + z.142#142 + z.144#144 + z.159#159 + z.162#162
                             + z.163#163 + z.164#164 <= 1
 c40:                        z.10#10 + z.137#137 + z.146#146 + z.150#150
                             + z.165#165 + z.166#166 <= 1
 c41:                        <= 1
 c42:                        z.155#155 + z.156#156 + z.157#157 <= 1
 c43:                        z.1#1 + z.2#2 + z.5#5 + z.6#6 + z.11#11 + z.13#13
                             + z.15#15 + z.17#17 + z.18#18 + z.21#21 + z.23#23
                             + z.25#25 + z.71#71 + z.72#72 + z.73#73 + z.74#74
                             + z.75#75 + z.76#76 + z.77#77 + z.78#78
                             + z.109#109 + z.110#110 + z.111#111 + z.112#112
                             + z.113#113 + z.114#114 + z.115#115 + z.117#117
                             + z.118#118 + z.119#119 + z.120#120 + z.123#123
                             + z.124#124 + z.126#126 + z.127#127 + z.128#128
                             + z.131#131 + z.134#134 + z.135#135 + z.136#136
                             + z.137#137 + z.138#138 + z.139#139 + z.140#140
                             + z.141#141 + z.147#147 + z.148#148 + z.149#149
                             + z.150#150 + z.151#151 + z.152#152 + z.153#153
                             + z.154#154 + z.166#166 + z.167#167 + z.168#168
                             + z.169#169 + z.170#170 + z.171#171 + z.172#172
                             + z.173#173 + z.174#174 + z.175#175 + z.176#176
                             <= 1
 c44:                        <= 1
 c45:                        z.71#71 + z.79#79 + z.80#80 + z.87#87 <= 1
 c46:                        z.26#26 + z.28#28 + z.87#87 + z.88#88 + z.89#89
                             + z.90#90 + z.91#91 + z.92#92 + z.93#93 + z.94#94
                             + z.95#95 <= 1
 c47:                        z.65#65 + z.116#116 + z.122#122 + z.125#125
                             + z.132#132 <= 1
 c48:                        z.101#101 + z.102#102 + z.103#103 + z.140#140
                             + z.153#153 + z.174#174 <= 1
 c49:                        z.3#3 + z.14#14 + z.19#19 + z.32#32 + z.33#33
                             + z.34#34 + z.42#42 + z.45#45 + z.49#49 + z.53#53
                             + z.61#61 + z.69#69 + z.73#73 + z.82#82 + z.85#85
                             + z.88#88 + z.100#100 + z.102#102 + z.104#104
                             + z.161#161 + z.162#162 + z.163#163 + z.177#177
                             + z.178#178 <= 1
 c50:                        <= 1
 c51:                        z.2#2 + z.15#15 + z.83#83 + z.119#119 + z.124#124
                             + z.168#168 + z.169#169 + z.173#173 <= 1
 c52:                        z.38#38 + z.41#41 + z.42#42 + z.43#43 + z.44#44
                             <= 1
 c53:                        z.94#94 + z.121#121 + z.122#122 + z.123#123 <= 1
 c54:                        z.98#98 + z.99#99 + z.100#100 + z.138#138
                             + z.151#151 + z.172#172 + z.173#173 <= 1
 c55:                        z.74#74 + z.90#90 + z.120#120 + z.171#171 <= 1
 c56:                        <= 1
 c57:                        z.70#70 <= 1
 c58:                        z.9#9 + z.34#34 + z.48#48 + z.49#49 + z.50#50
                             + z.60#60 + z.129#129 + z.130#130 + z.142#142
                             + z.143#143 + z.156#156 + z.163#163 + z.178#178
                             <= 1
 c59:                        z.4#4 + z.5#5 + z.12#12 + z.13#13 + z.20#20
                             + z.21#21 + z.43#43 + z.63#63 + z.67#67 + z.72#72
                             + z.93#93 + z.98#98 + z.101#101 + z.108#108
                             + z.111#111 + z.113#113 + z.128#128 + z.164#164
                             + z.165#165 + z.166#166 + z.167#167 + z.170#170
                             + z.172#172 + z.174#174 + z.176#176 <= 1
 c60:                        z.77#77 + z.89#89 + z.175#175 <= 1
 c61:                        z.67#67 + z.68#68 + z.69#69 + z.141#141
                             + z.154#154 + z.176#176 <= 1
 c62:                        <= 1
 c63:                        z.134#134 + z.147#147 + z.167#167 + z.168#168 <= 1
 c64:                        z.7#7 + z.33#33 + z.40#40 + z.45#45 + z.46#46
                             + z.47#47 + z.58#58 + z.59#59 + z.104#104
                             + z.105#105 + z.139#139 + z.144#144 + z.145#145
                             + z.152#152 + z.155#155 + z.159#159 + z.160#160
                             + z.162#162 + z.164#164 + z.177#177 <= 1
 c65:                        - 3 z.0#0 - 3 z.1#1 - 3 z.2#2 - 3 z.3#3 - 3 z.4#4
                             - 3 z.5#5 - 3 z.6#6 - 3 z.7#7 - 3 z.8#8 - 3 z.9#9
                             - 3 z.10#10 - 3 z.11#11 - 3 z.12#12 - 3 z.13#13
                             - 3 z.14#14 - 3 z.15#15 - 3 z.16#16 - 3 z.17#17
                             - 3 z.18#18 - 3 z.19#19 - 3 z.20#20 - 3 z.21#21
                             - 3 z.22#22 - 3 z.23#23 - 2 z.24#24 - 3 z.25#25
                             - 3 z.26#26 - 3 z.27#27 - 3 z.28#28 - 3 z.29#29
                             - 3 z.30#30 - 2 z.31#31 - 3 z.32#32 - 3 z.33#33
                             - 3 z.34#34 - 3 z.35#35 - 3 z.36#36 - 3 z.37#37
                             - 3 z.38#38 - 3 z.39#39 - 3 z.40#40 - 3 z.41#41
                             - 3 z.42#42 - 3 z.43#43 - 3 z.44#44 - 3 z.45#45
                             - 3 z.46#46 - 3 z.47#47 - 3 z.48#48 - 3 z.49#49
                             - 3 z.50#50 - 3 z.51#51 - 3 z.52#52 - 3 z.53#53
                             - 3 z.54#54 - 3 z.55#55 - 3 z.56#56 - 2 z.57#57
                             - 3 z.58#58 - 2 z.59#59 - 3 z.60#60 - 3 z.61#61
                             - 3 z.62#62 - 3 z.63#63 - 2 z.64#64 - 3 z.65#65
                             - 3 z.66#66 - 3 z.67#67 - 3 z.68#68 - 3 z.69#69
                             - 3 z.70#70 - 3 z.71#71 - 3 z.72#72 - 3 z.73#73
                             - 3 z.74#74 - 3 z.75#75 - 3 z.76#76 - 3 z.77#77
                             - 3 z.78#78 - 2 z.79#79 - 3 z.80#80 - 3 z.81#81
                             - 3 z.82#82 - 3 z.83#83 - 3 z.84#84 - 3 z.85#85
                             - 3 z.86#86 - 3 z.87#87 - 3 z.88#88 - 3 z.89#89
                             - 3 z.90#90 - 3 z.91#91 - 3 z.92#92 - 3 z.93#93
                             - 3 z.94#94 - 2 z.95#95 - 2 z.96#96 - 3 z.97#97
                             - 3 z.98#98 - 3 z.99#99 - 3 z.100#100
                             - 3 z.101#101 - 3 z.102#102 - 3 z.103#103
                             - 3 z.104#104 - 3 z.105#105 - 2 z.106#106
                             - 3 z.107#107 - 3 z.108#108 - 3 z.109#109
                             - 3 z.110#110 - 3 z.111#111 - 3 z.112#112
                             - 3 z.113#113 - 3 z.114#114 - 3 z.115#115
                             - 3 z.116#116 - 3 z.117#117 - 3 z.118#118
                             - 3 z.119#119 - 3 z.120#120 - 2 z.121#121
                             - 3 z.122#122 - 3 z.123#123 - 3 z.124#124
                             - 3 z.125#125 - 3 z.126#126 - 3 z.127#127
                             - 3 z.128#128 - 3 z.129#129 - 3 z.130#130
                             - 2 z.131#131 - 2 z.132#132 - 2 z.133#133
                             - 3 z.134#134 - 2 z.135#135 - 3 z.136#136
                             - 3 z.137#137 - 3 z.138#138 - 3 z.139#139
                             - 3 z.140#140 - 3 z.141#141 - 3 z.142#142
                             - 2 z.143#143 - 3 z.144#144 - 2 z.145#145
                             - 2 z.146#146 - 3 z.147#147 - 2 z.148#148
                             - 3 z.149#149 - 3 z.150#150 - 3 z.151#151
                             - 3 z.152#152 - 3 z.153#153 - 3 z.154#154
                             - 3 z.155#155 - 3 z.156#156 - 3 z.157#157
                             - 2 z.158#158 - 3 z.159#159 - 2 z.160#160
                             - 2 z.161#161 - 3 z.162#162 - 3 z.163#163
                             - 3 z.164#164 - 2 z.165#165 - 3 z.166#166
                             - 3 z.167#167 - 3 z.168#168 - 2 z.169#169
                             - 2 z.170#170 - 2 z.171#171 - 3 z.172#172
                             - 3 z.173#173 - 3 z.174#174 - 2 z.175#175
                             - 3 z.176#176 - 2 z.177#177 - 2 z.178#178
                             + _eta.0#179 <= 0
 recourseSol_PlannedSol.0.1: - z.8#8 + x.0#180 <= 0
 BoundGrandP.1:              _eta.0#179 - 3 x.0#180 <= 0
Bounds
 0 <= z.0#0 <= 1
 0 <= z.1#1 <= 1
 0 <= z.2#2 <= 1
 0 <= z.3#3 <= 1
 0 <= z.4#4 <= 1
 0 <= z.5#5 <= 1
 0 <= z.6#6 <= 1
 0 <= z.7#7 <= 1
 0 <= z.8#8 <= 1
 0 <= z.9#9 <= 1
 0 <= z.10#10 <= 1
 0 <= z.11#11 <= 1
 0 <= z.12#12 <= 1
 0 <= z.13#13 <= 1
 0 <= z.14#14 <= 1
 0 <= z.15#15 <= 1
 0 <= z.16#16 <= 1
 0 <= z.17#17 <= 1
 0 <= z.18#18 <= 1
 0 <= z.19#19 <= 1
 0 <= z.20#20 <= 1
 0 <= z.21#21 <= 1
 0 <= z.22#22 <= 1
 0 <= z.23#23 <= 1
 0 <= z.24#24 <= 1
 0 <= z.25#25 <= 1
 0 <= z.26#26 <= 1
 0 <= z.27#27 <= 1
 0 <= z.28#28 <= 1
 0 <= z.29#29 <= 1
 0 <= z.30#30 <= 1
 0 <= z.31#31 <= 1
 0 <= z.32#32 <= 1
 0 <= z.33#33 <= 1
 0 <= z.34#34 <= 1
 0 <= z.35#35 <= 1
 0 <= z.36#36 <= 1
 0 <= z.37#37 <= 1
 0 <= z.38#38 <= 1
 0 <= z.39#39 <= 1
 0 <= z.40#40 <= 1
 0 <= z.41#41 <= 1
 0 <= z.42#42 <= 1
 0 <= z.43#43 <= 1
 0 <= z.44#44 <= 1
 0 <= z.45#45 <= 1
 0 <= z.46#46 <= 1
 0 <= z.47#47 <= 1
 0 <= z.48#48 <= 1
 0 <= z.49#49 <= 1
 0 <= z.50#50 <= 1
 0 <= z.51#51 <= 1
 0 <= z.52#52 <= 1
 0 <= z.53#53 <= 1
 0 <= z.54#54 <= 1
 0 <= z.55#55 <= 1
 0 <= z.56#56 <= 1
 0 <= z.57#57 <= 1
 0 <= z.58#58 <= 1
 0 <= z.59#59 <= 1
 0 <= z.60#60 <= 1
 0 <= z.61#61 <= 1
 0 <= z.62#62 <= 1
 0 <= z.63#63 <= 1
 0 <= z.64#64 <= 1
 0 <= z.65#65 <= 1
 0 <= z.66#66 <= 1
 0 <= z.67#67 <= 1
 0 <= z.68#68 <= 1
 0 <= z.69#69 <= 1
 0 <= z.70#70 <= 1
 0 <= z.71#71 <= 1
 0 <= z.72#72 <= 1
 0 <= z.73#73 <= 1
 0 <= z.74#74 <= 1
 0 <= z.75#75 <= 1
 0 <= z.76#76 <= 1
 0 <= z.77#77 <= 1
 0 <= z.78#78 <= 1
 0 <= z.79#79 <= 1
 0 <= z.80#80 <= 1
 0 <= z.81#81 <= 1
 0 <= z.82#82 <= 1
 0 <= z.83#83 <= 1
 0 <= z.84#84 <= 1
 0 <= z.85#85 <= 1
 0 <= z.86#86 <= 1
 0 <= z.87#87 <= 1
 0 <= z.88#88 <= 1
 0 <= z.89#89 <= 1
 0 <= z.90#90 <= 1
 0 <= z.91#91 <= 1
 0 <= z.92#92 <= 1
 0 <= z.93#93 <= 1
 0 <= z.94#94 <= 1
 0 <= z.95#95 <= 1
 0 <= z.96#96 <= 1
 0 <= z.97#97 <= 1
 0 <= z.98#98 <= 1
 0 <= z.99#99 <= 1
 0 <= z.100#100 <= 1
 0 <= z.101#101 <= 1
 0 <= z.102#102 <= 1
 0 <= z.103#103 <= 1
 0 <= z.104#104 <= 1
 0 <= z.105#105 <= 1
 0 <= z.106#106 <= 1
 0 <= z.107#107 <= 1
 0 <= z.108#108 <= 1
 0 <= z.109#109 <= 1
 0 <= z.110#110 <= 1
 0 <= z.111#111 <= 1
 0 <= z.112#112 <= 1
 0 <= z.113#113 <= 1
 0 <= z.114#114 <= 1
 0 <= z.115#115 <= 1
 0 <= z.116#116 <= 1
 0 <= z.117#117 <= 1
 0 <= z.118#118 <= 1
 0 <= z.119#119 <= 1
 0 <= z.120#120 <= 1
 0 <= z.121#121 <= 1
 0 <= z.122#122 <= 1
 0 <= z.123#123 <= 1
 0 <= z.124#124 <= 1
 0 <= z.125#125 <= 1
 0 <= z.126#126 <= 1
 0 <= z.127#127 <= 1
 0 <= z.128#128 <= 1
 0 <= z.129#129 <= 1
 0 <= z.130#130 <= 1
 0 <= z.131#131 <= 1
 0 <= z.132#132 <= 1
 0 <= z.133#133 <= 1
 0 <= z.134#134 <= 1
 0 <= z.135#135 <= 1
 0 <= z.136#136 <= 1
 0 <= z.137#137 <= 1
 0 <= z.138#138 <= 1
 0 <= z.139#139 <= 1
 0 <= z.140#140 <= 1
 0 <= z.141#141 <= 1
 0 <= z.142#142 <= 1
 0 <= z.143#143 <= 1
 0 <= z.144#144 <= 1
 0 <= z.145#145 <= 1
 0 <= z.146#146 <= 1
 0 <= z.147#147 <= 1
 0 <= z.148#148 <= 1
 0 <= z.149#149 <= 1
 0 <= z.150#150 <= 1
 0 <= z.151#151 <= 1
 0 <= z.152#152 <= 1
 0 <= z.153#153 <= 1
 0 <= z.154#154 <= 1
 0 <= z.155#155 <= 1
 0 <= z.156#156 <= 1
 0 <= z.157#157 <= 1
 0 <= z.158#158 <= 1
 0 <= z.159#159 <= 1
 0 <= z.160#160 <= 1
 0 <= z.161#161 <= 1
 0 <= z.162#162 <= 1
 0 <= z.163#163 <= 1
 0 <= z.164#164 <= 1
 0 <= z.165#165 <= 1
 0 <= z.166#166 <= 1
 0 <= z.167#167 <= 1
 0 <= z.168#168 <= 1
 0 <= z.169#169 <= 1
 0 <= z.170#170 <= 1
 0 <= z.171#171 <= 1
 0 <= z.172#172 <= 1
 0 <= z.173#173 <= 1
 0 <= z.174#174 <= 1
 0 <= z.175#175 <= 1
 0 <= z.176#176 <= 1
 0 <= z.177#177 <= 1
 0 <= z.178#178 <= 1
Binaries
 z.0#0  z.1#1  z.2#2  z.3#3  z.4#4  z.5#5  z.6#6  z.7#7  z.8#8  z.9#9  z.10#10 
 z.11#11  z.12#12  z.13#13  z.14#14  z.15#15  z.16#16  z.17#17  z.18#18 
 z.19#19  z.20#20  z.21#21  z.22#22  z.23#23  z.24#24  z.25#25  z.26#26 
 z.27#27  z.28#28  z.29#29  z.30#30  z.31#31  z.32#32  z.33#33  z.34#34 
 z.35#35  z.36#36  z.37#37  z.38#38  z.39#39  z.40#40  z.41#41  z.42#42 
 z.43#43  z.44#44  z.45#45  z.46#46  z.47#47  z.48#48  z.49#49  z.50#50 
 z.51#51  z.52#52  z.53#53  z.54#54  z.55#55  z.56#56  z.57#57  z.58#58 
 z.59#59  z.60#60  z.61#61  z.62#62  z.63#63  z.64#64  z.65#65  z.66#66 
 z.67#67  z.68#68  z.69#69  z.70#70  z.71#71  z.72#72  z.73#73  z.74#74 
 z.75#75  z.76#76  z.77#77  z.78#78  z.79#79  z.80#80  z.81#81  z.82#82 
 z.83#83  z.84#84  z.85#85  z.86#86  z.87#87  z.88#88  z.89#89  z.90#90 
 z.91#91  z.92#92  z.93#93  z.94#94  z.95#95  z.96#96  z.97#97  z.98#98 
 z.99#99  z.100#100  z.101#101  z.102#102  z.103#103  z.104#104  z.105#105 
 z.106#106  z.107#107  z.108#108  z.109#109  z.110#110  z.111#111  z.112#112 
 z.113#113  z.114#114  z.115#115  z.116#116  z.117#117  z.118#118  z.119#119 
 z.120#120  z.121#121  z.122#122  z.123#123  z.124#124  z.125#125  z.126#126 
 z.127#127  z.128#128  z.129#129  z.130#130  z.131#131  z.132#132  z.133#133 
 z.134#134  z.135#135  z.136#136  z.137#137  z.138#138  z.139#139  z.140#140 
 z.141#141  z.142#142  z.143#143  z.144#144  z.145#145  z.146#146  z.147#147 
 z.148#148  z.149#149  z.150#150  z.151#151  z.152#152  z.153#153  z.154#154 
 z.155#155  z.156#156  z.157#157  z.158#158  z.159#159  z.160#160  z.161#161 
 z.162#162  z.163#163  z.164#164  z.165#165  z.166#166  z.167#167  z.168#168 
 z.169#169  z.170#170  z.171#171  z.172#172  z.173#173  z.174#174  z.175#175 
 z.176#176  z.177#177  z.178#178 
End
